/*********************************************
    * Lab01 - FCR
    * Author: Coso
    * Creation Date: Mar, 2019
    *********************************************/
instance_name = "medium_instance_21_FCR";

d = 5;
r = 15;

SCj = [163 188 147 152 174];
Dk = [58 42 85 100 16 68 76 82 75 70 53 11 36 11 20];

Cjk = [[62 49 34 71 41 72 33 78 62 68 74 37 31 85 78]
 [57 68 32 48 57 85 82 68 37 69 73 35 53 60 82]
 [61 34 53 43 40 33 31 44 58 52 38 56 45 64 70]
 [45 67 36 85 56 51 34 63 84 30 37 74 67 75 63]
 [30 76 45 84 69 50 52 61 44 80 48 61 84 32 47]];
Fjk = [[845 598 759 742 314 579 475 530 656 451 458 326 301 477 830]
 [491 435 725 489 291 416 649 584 830 633 587 305 423 530 517]
 [471 410 662 334 651 787 459 304 660 749 419 284 334 739 707]
 [409 426 560 585 472 584 303 800 390 352 462 469 747 388 569]
 [443 793 768 375 369 345 428 306 746 500 469 747 555 730 289]];
